NAME: PointSet_Angle_25_4
TYPE: TSP
COMMENT: Points chosen discrete uniformly at random out of ${0, \ldots, 500}^2$.
DIMENSION: 25
EDGE_WEIGHT_TYPE: EUC_2D
NODE_COORD_SECTION
1 187 33
2 15 497
3 144 332
4 36 305
5 79 437
6 370 52
7 440 483
8 78 71
9 481 187
10 124 161
11 234 111
12 54 493
13 102 71
14 77 328
15 325 149
16 298 258
17 182 313
18 254 327
19 392 36
20 378 217
21 220 494
22 15 159
23 477 94
24 477 457
25 27 100
EOF
